data/rand/rand_100.gr
p tdp 15 57
1 2
1 4
1 5
1 7
1 8
1 14
2 3
2 4
2 5
2 6
2 8
2 10
2 11
2 12
2 13
2 15
3 4
3 5
3 7
3 8
3 11
3 14
3 15
4 5
4 6
4 7
4 11
4 13
5 10
5 11
5 13
5 14
6 8
6 9
6 10
6 11
6 12
6 14
7 8
7 9
7 10
7 12
7 13
7 14
8 9
8 10
8 11
8 13
8 14
9 10
9 11
9 14
10 13
10 14
10 15
11 13
13 15
