solutions/best/rand/rand_100.sol
10
14
0
15
2
4
10
5
7
6
11
14
6
15
8
10
